JulietBench/Juliet_Based_Patch_Bench/linux/CWE-189-Numeric-Errors/CVE_2009_1385_ea30e11970a96cfe5e32c03a29332554573b4a10/solvere1000_clean_rx_irq_Snippet_patch2.smt2
; benchmark generated from python API
(set-info :status unknown)
(declare-fun R () (_ BitVec 32))
(declare-fun rsi () (_ BitVec 64))
(declare-fun rdi () (_ BitVec 64))
(assert
 (let (($x95 (and (distinct (_ bv4 32) R) true)))
 (let (($x15 (= (_ bv4294967295 32) R)))
 (let ((?x12 ((_ extract 7 0) rsi)))
 (let ((?x39 (bvand ?x12 (_ bv2 8))))
 (let (($x38 (= (_ bv0 8) ?x39)))
 (let (($x14 (and $x38 $x15)))
 (let ((?x6 ((_ extract 31 0) rdi)))
 (let ((?x97 (bvadd (_ bv4294967292 32) ?x6)))
 (let (($x83 (= R ?x97)))
 (let (($x77 (and (distinct (_ bv0 8) ?x39) true)))
 (let (($x92 (and $x77 $x83)))
 (let (($x16 (or $x92 $x14)))
 (let (($x94 (not $x16)))
 (let (($x99 (and $x94 $x95)))
 (let (($x9 (= (_ bv4 32) R)))
 (let (($x93 (and $x16 $x9)))
 (let (($x100 (or $x93 $x99)))
 (not $x100)))))))))))))))))))
(check-sat)
